Minimize
  - 10 y_0 - 4 y_1 - 8 y_2 - 9 y_3 - 8 y_4 - 8 y_5 - 3 y_6 - 9 y_7 - 10 y_8
   - 6 y_9 - 9 y_10 - 2 y_11 - 9 y_12 - 10 y_13 - 8 y_14 - 12 y_15
   - 11 y_16 - 7 y_17 - 12 y_18 - 11 y_19 - 5 y_20 - 6 y_21 - 3 y_22
   - 12 y_23 - 9 y_24 - 6 y_25 - 4 y_26 - 6 y_27 - 10 y_28 - 8 y_29
   - 8 y_30 - 8 y_31 - 10 y_32 - 11 y_33 - 8 y_34 - 9 y_35 - 7 y_36
   - 4 y_37 - 5 y_38 - 2 y_39 - 7 y_40 - 8 y_42 - 10 y_43 - 11 y_44
   - 5 y_45 - 9 y_46 - 13 y_47 - 8 y_48 - 6 y_49 + 43 x_0_1 + 75 x_0_2
   + 85 x_0_4 + 74 x_0_5 + 37 x_0_6 + 95 x_0_7 + 92 x_0_8 + 75 x_0_9
   + 48 x_0_10 + 15 x_0_14 + 82 x_0_16 + 73 x_0_17 + 73 x_0_19 + 75 x_0_20
   + 67 x_0_22 + 64 x_0_25 + 45 x_0_27 + 21 x_0_30 + 108 x_0_33 + 61 x_0_34
   + 83 x_0_35 + 53 x_0_36 + 52 x_0_41 + 107 x_0_44 + 58 x_0_45 + 10 x_0_46
   + 33 x_1_2 + 65 x_1_3 + 60 x_1_5 + 13 x_1_6 + 49 x_1_8 + 17 x_1_11
   + 51 x_1_12 + 32 x_1_14 + 67 x_1_15 + 73 x_1_16 + 52 x_1_17 + 74 x_1_18
   + 69 x_1_19 + 35 x_1_20 + 34 x_1_22 + 57 x_1_31 + 43 x_1_32 + 70 x_1_33
   + 27 x_1_34 + 20 x_1_36 + 22 x_1_37 + 27 x_1_42 + 64 x_1_43 + 67 x_1_44
   + 41 x_1_45 + 50 x_1_48 + 32 x_1_49 + 44 x_2_6 + 28 x_2_7 + 17 x_2_8
   + 60 x_2_9 + 45 x_2_11 + 73 x_2_13 + 65 x_2_14 + 92 x_2_16 + 66 x_2_17
   + 65 x_2_18 + 92 x_2_19 + 31 x_2_20 + 11 x_2_25 + 29 x_2_26 + 55 x_2_30
   + 58 x_2_31 + 79 x_2_35 + 26 x_2_36 + 90 x_2_43 + 73 x_2_46 + 67 x_2_47
   + 65 x_3_7 + 81 x_3_8 + 92 x_3_10 + 51 x_3_11 + 85 x_3_13 + 64 x_3_15
   + 15 x_3_17 + 33 x_3_19 + 37 x_3_21 + 34 x_3_22 + 99 x_3_23 + 47 x_3_26
   + 43 x_3_27 + 22 x_3_31 + 55 x_3_37 + 48 x_3_39 + 80 x_3_42 + 43 x_3_43
   + 50 x_3_47 + 66 x_3_49 + 74 x_4_5 + 13 x_4_7 + 54 x_4_9 + 49 x_4_11
   + 30 x_4_15 + 38 x_4_22 + 90 x_4_23 + 44 x_4_24 + 23 x_4_25 + 13 x_4_28
   + 19 x_4_29 + 65 x_4_30 + 49 x_4_31 + 15 x_4_32 + 42 x_4_33 + 73 x_4_35
   + 40 x_4_36 + 58 x_4_37 + 50 x_4_38 + 49 x_4_39 + 36 x_4_40 + 41 x_4_41
   + 82 x_4_46 + 53 x_4_47 + 22 x_4_48 + 73 x_5_7 + 86 x_5_8 + 44 x_5_11
   + 13 x_5_17 + 55 x_5_18 + 36 x_5_22 + 89 x_5_24 + 71 x_5_25 + 29 x_5_27
   + 69 x_5_30 + 84 x_5_34 + 11 x_5_35 + 79 x_5_36 + 45 x_5_37 + 24 x_5_38
   + 41 x_5_39 + 43 x_5_40 + 42 x_5_41 + 26 x_5_43 + 63 x_5_44 + 64 x_5_46
   + 60 x_5_48 + 69 x_5_49 + 38 x_6_10 + 6 x_6_11 + 35 x_6_13 + 24 x_6_14
   + 73 x_6_18 + 37 x_6_20 + 31 x_6_21 + 31 x_6_22 + 42 x_6_24 + 33 x_6_25
   + 32 x_6_26 + 56 x_6_29 + 54 x_6_32 + 71 x_6_33 + 57 x_6_35 + 32 x_6_36
   + 9 x_6_37 + 10 x_6_39 + 15 x_6_41 + 39 x_6_42 + 32 x_6_46 + 81 x_6_47
   + 20 x_7_8 + 52 x_7_9 + x_7_12 + 82 x_7_14 + 17 x_7_15 + 73 x_7_21
   + 40 x_7_22 + 101 x_7_23 + 28 x_7_26 + 75 x_7_27 + 4 x_7_28 + 43 x_7_31
   + 31 x_7_33 + 53 x_7_36 + 55 x_7_39 + 46 x_7_41 + 92 x_7_43 + 27 x_7_44
   + 67 x_8_9 + 59 x_8_11 + 90 x_8_13 + 81 x_8_14 + 51 x_8_22 + 95 x_8_23
   + 44 x_8_24 + 28 x_8_25 + 82 x_8_27 + 28 x_8_29 + 60 x_8_31 + 37 x_8_34
   + 85 x_8_35 + 68 x_8_37 + 62 x_8_38 + 51 x_8_41 + 27 x_8_42 + 102 x_8_43
   + 47 x_8_44 + 72 x_8_45 + 90 x_8_46 + 76 x_9_10 + 53 x_9_12 + 72 x_9_13
   + 56 x_9_15 + 8 x_9_17 + 39 x_9_18 + 29 x_9_21 + 18 x_9_22 + 76 x_9_24
   + 55 x_9_25 + 57 x_9_28 + 44 x_9_29 + 19 x_9_35 + 66 x_9_36 + 23 x_9_40
   + 43 x_9_43 + 44 x_9_44 + 18 x_9_45 + 43 x_10_11 + 47 x_10_13
   + 45 x_10_14 + 82 x_10_15 + 100 x_10_16 + 79 x_10_17 + 69 x_10_21
   + 30 x_10_25 + 52 x_10_26 + 66 x_10_27 + 66 x_10_28 + 68 x_10_29
   + 29 x_10_30 + 46 x_10_32 + 90 x_10_33 + 17 x_10_34 + 93 x_10_35
   + 46 x_10_37 + 89 x_10_43 + 101 x_10_47 + 68 x_10_48 + 44 x_10_49
   + 56 x_11_12 + 69 x_11_15 + 53 x_11_19 + 35 x_11_25 + 59 x_11_28
   + 29 x_11_30 + 48 x_11_31 + 55 x_11_32 + 67 x_11_33 + 50 x_11_35
   + 37 x_11_36 + 32 x_11_38 + 4 x_11_39 + 48 x_11_43 + 65 x_11_44
   + 25 x_11_45 + 92 x_12_13 + 82 x_12_14 + 18 x_12_15 + 86 x_12_16
   + 89 x_12_19 + 25 x_12_20 + 39 x_12_22 + 100 x_12_23 + 57 x_12_24
   + 34 x_12_25 + 4 x_12_28 + 75 x_12_30 + 43 x_12_31 + 25 x_12_32
   + 52 x_12_36 + 55 x_12_39 + 46 x_12_41 + 21 x_12_49 + 12 x_13_14
   + 107 x_13_15 + 80 x_13_16 + 72 x_13_20 + 65 x_13_22 + 15 x_13_23
   + 57 x_13_24 + 67 x_13_26 + 95 x_13_28 + 91 x_13_29 + 19 x_13_30
   + 83 x_13_32 + 106 x_13_33 + 59 x_13_34 + 81 x_13_35 + 69 x_13_38
   + 82 x_13_40 + 50 x_13_41 + 65 x_13_42 + 60 x_13_43 + 104 x_13_44
   + 58 x_14_17 + 95 x_14_18 + 37 x_14_21 + 53 x_14_22 + 27 x_14_23
   + 54 x_14_24 + 54 x_14_25 + 32 x_14_27 + 85 x_14_28 + 80 x_14_29
   + 16 x_14_30 + 94 x_14_33 + 54 x_14_34 + 46 x_14_36 + 20 x_14_37
   + 57 x_14_38 + 58 x_14_42 + 93 x_14_44 + 44 x_14_45 + 8 x_14_46
   + 103 x_14_47 + 32 x_15_18 + 116 x_15_23 + 75 x_15_24 + 16 x_15_29
   + 42 x_15_31 + 20 x_15_33 + 66 x_15_34 + 78 x_15_37 + 67 x_15_39
   + 57 x_15_42 + 69 x_15_45 + 104 x_15_46 + 28 x_15_47 + 19 x_15_48
   + 26 x_16_17 + 33 x_16_21 + 85 x_16_25 + 63 x_16_26 + 90 x_16_28
   + 81 x_16_30 + 73 x_16_33 + 98 x_16_34 + 17 x_16_35 + 54 x_16_39
   + 55 x_16_40 + 56 x_16_41 + 94 x_16_42 + 73 x_16_46 + 36 x_17_20
   + 23 x_17_22 + 85 x_17_23 + 80 x_17_24 + 60 x_17_25 + 52 x_17_29
   + 65 x_17_30 + 73 x_17_32 + 14 x_17_35 + 11 x_17_38 + 30 x_17_40
   + 33 x_17_41 + 69 x_17_42 + 47 x_17_48 + 56 x_17_49 + 72 x_18_19
   + 39 x_18_20 + 119 x_18_23 + 45 x_18_26 + 73 x_18_27 + 45 x_18_28
   + 34 x_18_29 + 22 x_18_31 + 46 x_18_35 + 75 x_18_37 + 40 x_18_38
   + 64 x_18_39 + 58 x_18_41 + 80 x_18_43 + 31 x_18_48 + 26 x_19_21
   + 87 x_19_23 + 99 x_19_24 + 31 x_19_27 + 81 x_19_29 + 74 x_19_30
   + 52 x_19_31 + 80 x_19_33 + 95 x_19_34 + 50 x_19_37 + 40 x_19_38
   + 54 x_19_41 + 14 x_19_43 + 80 x_19_44 + 30 x_19_45 + 63 x_19_46
   + 82 x_19_47 + 47 x_20_21 + 83 x_20_23 + 6 x_20_26 + 20 x_20_29
   + 58 x_20_30 + 37 x_20_32 + 48 x_20_35 + 42 x_20_37 + 26 x_20_38
   + 23 x_20_41 + 38 x_20_42 + 67 x_20_43 + 37 x_20_45 + 45 x_20_47
   + 16 x_20_48 + 64 x_21_23 + 73 x_21_24 + 60 x_21_25 + 45 x_21_26
   + 6 x_21_27 + 66 x_21_29 + 48 x_21_30 + 46 x_21_31 + 70 x_21_34
   + 24 x_21_37 + 28 x_21_38 + 30 x_21_41 + 22 x_21_43 + 12 x_21_45
   + 42 x_21_46 + 62 x_21_48 + 77 x_22_23 + 36 x_22_27 + 33 x_22_29
   + 54 x_22_30 + 52 x_22_34 + 33 x_22_37 + 13 x_22_38 + 22 x_22_39
   + 18 x_22_40 + 16 x_22_41 + 53 x_22_43 + 60 x_22_46 + 50 x_22_47
   + 33 x_22_49 + 77 x_23_26 + 58 x_23_27 + 102 x_23_28 + 100 x_23_29
   + 87 x_23_32 + 61 x_23_34 + 55 x_23_39 + 94 x_23_40 + 115 x_23_44
   + 70 x_23_45 + 23 x_23_46 + 79 x_23_49 + 71 x_24_27 + 57 x_24_28
   + 38 x_24_30 + 80 x_24_31 + 36 x_24_32 + 8 x_24_34 + 10 x_24_36
   + 51 x_24_37 + 71 x_24_38 + 49 x_24_39 + 69 x_24_40 + 18 x_24_42
   + 81 x_24_44 + 70 x_24_45 + 95 x_24_47 + 37 x_24_49 + 26 x_25_26
   + 38 x_25_29 + 44 x_25_30 + 57 x_25_31 + 22 x_25_32 + 18 x_25_36
   + 50 x_25_38 + 36 x_25_39 + 9 x_25_42 + 81 x_25_43 + 57 x_25_44
   + 62 x_25_46 + 38 x_25_48 + 31 x_26_31 + 36 x_26_32 + 40 x_26_33
   + 50 x_26_35 + 38 x_26_37 + 27 x_26_39 + 21 x_26_48 + 69 x_27_29
   + 51 x_27_31 + 76 x_27_33 + 68 x_27_34 + 39 x_27_35 + 20 x_27_37
   + 52 x_27_40 + 67 x_27_42 + 23 x_27_43 + 75 x_27_44 + 16 x_27_45
   + 83 x_27_47 + 13 x_28_29 + 78 x_28_30 + 47 x_28_31 + 49 x_28_34
   + 58 x_28_39 + 50 x_28_41 + 39 x_28_42 + 44 x_28_47 + 18 x_28_48
   + 53 x_29_34 + 41 x_29_38 + 42 x_29_41 + 44 x_29_42 + 20 x_29_44
   + 34 x_29_47 + 77 x_30_31 + 93 x_30_33 + 40 x_30_34 + 32 x_30_36
   + 25 x_30_37 + 32 x_30_39 + 38 x_30_41 + 46 x_30_42 + 65 x_30_43
   + 51 x_30_45 + 22 x_30_46 + 102 x_30_47 + 55 x_30_49 + 63 x_31_32
   + 73 x_31_34 + 29 x_31_35 + 71 x_31_36 + 45 x_31_39 + 13 x_31_40
   + 65 x_31_42 + 60 x_31_43 + 28 x_31_44 + 32 x_31_47 + 35 x_32_36
   + 63 x_32_37 + 55 x_32_39 + 48 x_32_41 + 20 x_32_42 + 53 x_32_44
   + 67 x_32_47 + 36 x_32_48 + 17 x_32_49 + 76 x_33_34 + 55 x_33_35
   + 77 x_33_36 + 43 x_33_38 + 67 x_33_42 + 4 x_33_44 + 60 x_33_45
   + 88 x_34_35 + 65 x_34_38 + 45 x_34_39 + 42 x_34_41 + 10 x_34_42
   + 61 x_34_46 + 87 x_34_47 + 54 x_34_48 + 29 x_34_49 + 53 x_35_37
   + 23 x_35_38 + 36 x_35_43 + 74 x_35_46 + 57 x_35_47 + 69 x_35_49
   + 41 x_36_37 + 60 x_36_40 + 37 x_36_41 + 15 x_36_42 + 60 x_36_45
   + 53 x_36_46 + 56 x_36_48 + 31 x_36_49 + 38 x_37_38 + 19 x_37_41
   + 43 x_37_43 + 26 x_37_45 + 27 x_37_46 + 59 x_37_48 + 49 x_37_49
   + 28 x_38_39 + 21 x_38_40 + 59 x_38_42 + 43 x_38_44 + 50 x_38_47
   + 40 x_39_40 + 62 x_39_44 + 48 x_39_48 + 40 x_39_49 + 65 x_40_43
   + 23 x_40_44 + 78 x_40_46 + 33 x_40_47 + 17 x_40_48 + 54 x_41_44
   + 46 x_41_46 + 65 x_41_47 + 32 x_41_49 + 63 x_42_44 + 78 x_42_47
   + 45 x_42_48 + 87 x_43_44 + 91 x_43_47 + 60 x_44_45 + 100 x_44_46
   + 44 x_44_49 + 49 x_45_46 + 51 x_45_48 + 111 x_46_47 + 72 x_46_49
   + 384 Constant
Subject To
 c_0: y_42 = 1
 c_1_0: y_0 + y_13 + y_46 >= 1
 c_1_1: y_1 >= 1
 c_1_2: y_2 + y_32 + y_49 >= 1
 c_1_3: y_3 + y_35 >= 1
 c_1_4: y_4 + y_49 >= 1
 c_1_5: y_5 >= 1
 c_1_6: y_6 + y_11 + y_37 + y_39 >= 1
 c_1_7: y_7 + y_12 + y_28 + y_29 >= 1
 c_1_8: y_8 + y_32 >= 1
 c_1_9: y_9 + y_17 + y_38 >= 1
 c_1_10: y_10 >= 1
 c_1_11: y_6 + y_11 + y_37 + y_39 >= 1
 c_1_12: y_7 + y_12 + y_28 + y_29 >= 1
 c_1_13: y_0 + y_13 + y_46 >= 1
 c_1_14: y_14 + y_46 >= 1
 c_1_15: y_15 >= 1
 c_1_16: y_16 >= 1
 c_1_17: y_9 + y_17 >= 1
 c_1_18: y_18 >= 1
 c_1_19: y_19 >= 1
 c_1_20: y_20 + y_26 >= 1
 c_1_21: y_21 + y_27 >= 1
 c_1_22: y_22 >= 1
 c_1_23: y_23 >= 1
 c_1_24: y_24 + y_34 + y_36 >= 1
 c_1_25: y_25 + y_42 >= 1
 c_1_26: y_20 + y_26 >= 1
 c_1_27: y_21 + y_27 >= 1
 c_1_28: y_7 + y_12 + y_28 >= 1
 c_1_29: y_7 + y_12 + y_29 + y_48 >= 1
 c_1_30: y_30 >= 1
 c_1_31: y_31 >= 1
 c_1_32: y_2 + y_8 + y_32 >= 1
 c_1_33: y_33 + y_44 >= 1
 c_1_34: y_24 + y_34 + y_36 + y_42 >= 1
 c_1_35: y_3 + y_35 >= 1
 c_1_36: y_24 + y_34 + y_36 >= 1
 c_1_37: y_6 + y_11 + y_37 >= 1
 c_1_38: y_9 + y_38 >= 1
 c_1_39: y_6 + y_11 + y_39 + y_41 >= 1
 c_1_40: y_40 >= 1
 c_1_41: y_39 + y_41 >= 1
 c_1_42: y_25 + y_34 + y_42 >= 1
 c_1_43: y_43 >= 1
 c_1_44: y_33 + y_44 >= 1
 c_1_45: y_45 >= 1
 c_1_46: y_0 + y_13 + y_14 + y_46 >= 1
 c_1_47: y_47 >= 1
 c_1_48: y_29 + y_48 >= 1
 c_1_49: y_2 + y_4 + y_49 >= 1
 c_2_0: - 2 y_0 + x_0_1 + x_0_2 + x_0_4 + x_0_5 + x_0_6 + x_0_7 + x_0_8
   + x_0_9 + x_0_10 + x_0_14 + x_0_16 + x_0_17 + x_0_19 + x_0_20 + x_0_22
   + x_0_25 + x_0_27 + x_0_30 + x_0_33 + x_0_34 + x_0_35 + x_0_36 + x_0_41
   + x_0_44 + x_0_45 + x_0_46 = 0
 c_2_1: - 2 y_1 + x_0_1 + x_1_2 + x_1_3 + x_1_5 + x_1_6 + x_1_8 + x_1_11
   + x_1_12 + x_1_14 + x_1_15 + x_1_16 + x_1_17 + x_1_18 + x_1_19 + x_1_20
   + x_1_22 + x_1_31 + x_1_32 + x_1_33 + x_1_34 + x_1_36 + x_1_37 + x_1_42
   + x_1_43 + x_1_44 + x_1_45 + x_1_48 + x_1_49 = 0
 c_2_2: - 2 y_2 + x_0_2 + x_1_2 + x_2_6 + x_2_7 + x_2_8 + x_2_9 + x_2_11
   + x_2_13 + x_2_14 + x_2_16 + x_2_17 + x_2_18 + x_2_19 + x_2_20 + x_2_25
   + x_2_26 + x_2_30 + x_2_31 + x_2_35 + x_2_36 + x_2_43 + x_2_46 + x_2_47
   = 0
 c_2_3: - 2 y_3 + x_1_3 + x_3_7 + x_3_8 + x_3_10 + x_3_11 + x_3_13 + x_3_15
   + x_3_17 + x_3_19 + x_3_21 + x_3_22 + x_3_23 + x_3_26 + x_3_27 + x_3_31
   + x_3_37 + x_3_39 + x_3_42 + x_3_43 + x_3_47 + x_3_49 = 0
 c_2_4: - 2 y_4 + x_0_4 + x_4_5 + x_4_7 + x_4_9 + x_4_11 + x_4_15 + x_4_22
   + x_4_23 + x_4_24 + x_4_25 + x_4_28 + x_4_29 + x_4_30 + x_4_31 + x_4_32
   + x_4_33 + x_4_35 + x_4_36 + x_4_37 + x_4_38 + x_4_39 + x_4_40 + x_4_41
   + x_4_46 + x_4_47 + x_4_48 = 0
 c_2_5: - 2 y_5 + x_0_5 + x_1_5 + x_4_5 + x_5_7 + x_5_8 + x_5_11 + x_5_17
   + x_5_18 + x_5_22 + x_5_24 + x_5_25 + x_5_27 + x_5_30 + x_5_34 + x_5_35
   + x_5_36 + x_5_37 + x_5_38 + x_5_39 + x_5_40 + x_5_41 + x_5_43 + x_5_44
   + x_5_46 + x_5_48 + x_5_49 = 0
 c_2_6: - 2 y_6 + x_0_6 + x_1_6 + x_2_6 + x_6_10 + x_6_11 + x_6_13 + x_6_14
   + x_6_18 + x_6_20 + x_6_21 + x_6_22 + x_6_24 + x_6_25 + x_6_26 + x_6_29
   + x_6_32 + x_6_33 + x_6_35 + x_6_36 + x_6_37 + x_6_39 + x_6_41 + x_6_42
   + x_6_46 + x_6_47 = 0
 c_2_7: - 2 y_7 + x_0_7 + x_2_7 + x_3_7 + x_4_7 + x_5_7 + x_7_8 + x_7_9
   + x_7_12 + x_7_14 + x_7_15 + x_7_21 + x_7_22 + x_7_23 + x_7_26 + x_7_27
   + x_7_28 + x_7_31 + x_7_33 + x_7_36 + x_7_39 + x_7_41 + x_7_43 + x_7_44
   = 0
 c_2_8: - 2 y_8 + x_0_8 + x_1_8 + x_2_8 + x_3_8 + x_5_8 + x_7_8 + x_8_9
   + x_8_11 + x_8_13 + x_8_14 + x_8_22 + x_8_23 + x_8_24 + x_8_25 + x_8_27
   + x_8_29 + x_8_31 + x_8_34 + x_8_35 + x_8_37 + x_8_38 + x_8_41 + x_8_42
   + x_8_43 + x_8_44 + x_8_45 + x_8_46 = 0
 c_2_9: - 2 y_9 + x_0_9 + x_2_9 + x_4_9 + x_7_9 + x_8_9 + x_9_10 + x_9_12
   + x_9_13 + x_9_15 + x_9_17 + x_9_18 + x_9_21 + x_9_22 + x_9_24 + x_9_25
   + x_9_28 + x_9_29 + x_9_35 + x_9_36 + x_9_40 + x_9_43 + x_9_44 + x_9_45
   = 0
 c_2_10: - 2 y_10 + x_0_10 + x_3_10 + x_6_10 + x_9_10 + x_10_11 + x_10_13
   + x_10_14 + x_10_15 + x_10_16 + x_10_17 + x_10_21 + x_10_25 + x_10_26
   + x_10_27 + x_10_28 + x_10_29 + x_10_30 + x_10_32 + x_10_33 + x_10_34
   + x_10_35 + x_10_37 + x_10_43 + x_10_47 + x_10_48 + x_10_49 = 0
 c_2_11: - 2 y_11 + x_1_11 + x_2_11 + x_3_11 + x_4_11 + x_5_11 + x_6_11
   + x_8_11 + x_10_11 + x_11_12 + x_11_15 + x_11_19 + x_11_25 + x_11_28
   + x_11_30 + x_11_31 + x_11_32 + x_11_33 + x_11_35 + x_11_36 + x_11_38
   + x_11_39 + x_11_43 + x_11_44 + x_11_45 = 0
 c_2_12: - 2 y_12 + x_1_12 + x_7_12 + x_9_12 + x_11_12 + x_12_13 + x_12_14
   + x_12_15 + x_12_16 + x_12_19 + x_12_20 + x_12_22 + x_12_23 + x_12_24
   + x_12_25 + x_12_28 + x_12_30 + x_12_31 + x_12_32 + x_12_36 + x_12_39
   + x_12_41 + x_12_49 = 0
 c_2_13: - 2 y_13 + x_2_13 + x_3_13 + x_6_13 + x_8_13 + x_9_13 + x_10_13
   + x_12_13 + x_13_14 + x_13_15 + x_13_16 + x_13_20 + x_13_22 + x_13_23
   + x_13_24 + x_13_26 + x_13_28 + x_13_29 + x_13_30 + x_13_32 + x_13_33
   + x_13_34 + x_13_35 + x_13_38 + x_13_40 + x_13_41 + x_13_42 + x_13_43
   + x_13_44 = 0
 c_2_14: - 2 y_14 + x_0_14 + x_1_14 + x_2_14 + x_6_14 + x_7_14 + x_8_14
   + x_10_14 + x_12_14 + x_13_14 + x_14_17 + x_14_18 + x_14_21 + x_14_22
   + x_14_23 + x_14_24 + x_14_25 + x_14_27 + x_14_28 + x_14_29 + x_14_30
   + x_14_33 + x_14_34 + x_14_36 + x_14_37 + x_14_38 + x_14_42 + x_14_44
   + x_14_45 + x_14_46 + x_14_47 = 0
 c_2_15: - 2 y_15 + x_1_15 + x_3_15 + x_4_15 + x_7_15 + x_9_15 + x_10_15
   + x_11_15 + x_12_15 + x_13_15 + x_15_18 + x_15_23 + x_15_24 + x_15_29
   + x_15_31 + x_15_33 + x_15_34 + x_15_37 + x_15_39 + x_15_42 + x_15_45
   + x_15_46 + x_15_47 + x_15_48 = 0
 c_2_16: - 2 y_16 + x_0_16 + x_1_16 + x_2_16 + x_10_16 + x_12_16 + x_13_16
   + x_16_17 + x_16_21 + x_16_25 + x_16_26 + x_16_28 + x_16_30 + x_16_33
   + x_16_34 + x_16_35 + x_16_39 + x_16_40 + x_16_41 + x_16_42 + x_16_46
   = 0
 c_2_17: - 2 y_17 + x_0_17 + x_1_17 + x_2_17 + x_3_17 + x_5_17 + x_9_17
   + x_10_17 + x_14_17 + x_16_17 + x_17_20 + x_17_22 + x_17_23 + x_17_24
   + x_17_25 + x_17_29 + x_17_30 + x_17_32 + x_17_35 + x_17_38 + x_17_40
   + x_17_41 + x_17_42 + x_17_48 + x_17_49 = 0
 c_2_18: - 2 y_18 + x_1_18 + x_2_18 + x_5_18 + x_6_18 + x_9_18 + x_14_18
   + x_15_18 + x_18_19 + x_18_20 + x_18_23 + x_18_26 + x_18_27 + x_18_28
   + x_18_29 + x_18_31 + x_18_35 + x_18_37 + x_18_38 + x_18_39 + x_18_41
   + x_18_43 + x_18_48 = 0
 c_2_19: - 2 y_19 + x_0_19 + x_1_19 + x_2_19 + x_3_19 + x_11_19 + x_12_19
   + x_18_19 + x_19_21 + x_19_23 + x_19_24 + x_19_27 + x_19_29 + x_19_30
   + x_19_31 + x_19_33 + x_19_34 + x_19_37 + x_19_38 + x_19_41 + x_19_43
   + x_19_44 + x_19_45 + x_19_46 + x_19_47 = 0
 c_2_20: - 2 y_20 + x_0_20 + x_1_20 + x_2_20 + x_6_20 + x_12_20 + x_13_20
   + x_17_20 + x_18_20 + x_20_21 + x_20_23 + x_20_26 + x_20_29 + x_20_30
   + x_20_32 + x_20_35 + x_20_37 + x_20_38 + x_20_41 + x_20_42 + x_20_43
   + x_20_45 + x_20_47 + x_20_48 = 0
 c_2_21: - 2 y_21 + x_3_21 + x_6_21 + x_7_21 + x_9_21 + x_10_21 + x_14_21
   + x_16_21 + x_19_21 + x_20_21 + x_21_23 + x_21_24 + x_21_25 + x_21_26
   + x_21_27 + x_21_29 + x_21_30 + x_21_31 + x_21_34 + x_21_37 + x_21_38
   + x_21_41 + x_21_43 + x_21_45 + x_21_46 + x_21_48 = 0
 c_2_22: - 2 y_22 + x_0_22 + x_1_22 + x_3_22 + x_4_22 + x_5_22 + x_6_22
   + x_7_22 + x_8_22 + x_9_22 + x_12_22 + x_13_22 + x_14_22 + x_17_22
   + x_22_23 + x_22_27 + x_22_29 + x_22_30 + x_22_34 + x_22_37 + x_22_38
   + x_22_39 + x_22_40 + x_22_41 + x_22_43 + x_22_46 + x_22_47 + x_22_49
   = 0
 c_2_23: - 2 y_23 + x_3_23 + x_4_23 + x_7_23 + x_8_23 + x_12_23 + x_13_23
   + x_14_23 + x_15_23 + x_17_23 + x_18_23 + x_19_23 + x_20_23 + x_21_23
   + x_22_23 + x_23_26 + x_23_27 + x_23_28 + x_23_29 + x_23_32 + x_23_34
   + x_23_39 + x_23_40 + x_23_44 + x_23_45 + x_23_46 + x_23_49 = 0
 c_2_24: - 2 y_24 + x_4_24 + x_5_24 + x_6_24 + x_8_24 + x_9_24 + x_12_24
   + x_13_24 + x_14_24 + x_15_24 + x_17_24 + x_19_24 + x_21_24 + x_24_27
   + x_24_28 + x_24_30 + x_24_31 + x_24_32 + x_24_34 + x_24_36 + x_24_37
   + x_24_38 + x_24_39 + x_24_40 + x_24_42 + x_24_44 + x_24_45 + x_24_47
   + x_24_49 = 0
 c_2_25: - 2 y_25 + x_0_25 + x_2_25 + x_4_25 + x_5_25 + x_6_25 + x_8_25
   + x_9_25 + x_10_25 + x_11_25 + x_12_25 + x_14_25 + x_16_25 + x_17_25
   + x_21_25 + x_25_26 + x_25_29 + x_25_30 + x_25_31 + x_25_32 + x_25_36
   + x_25_38 + x_25_39 + x_25_42 + x_25_43 + x_25_44 + x_25_46 + x_25_48
   = 0
 c_2_26: - 2 y_26 + x_2_26 + x_3_26 + x_6_26 + x_7_26 + x_10_26 + x_13_26
   + x_16_26 + x_18_26 + x_20_26 + x_21_26 + x_23_26 + x_25_26 + x_26_31
   + x_26_32 + x_26_33 + x_26_35 + x_26_37 + x_26_39 + x_26_48 = 0
 c_2_27: - 2 y_27 + x_0_27 + x_3_27 + x_5_27 + x_7_27 + x_8_27 + x_10_27
   + x_14_27 + x_18_27 + x_19_27 + x_21_27 + x_22_27 + x_23_27 + x_24_27
   + x_27_29 + x_27_31 + x_27_33 + x_27_34 + x_27_35 + x_27_37 + x_27_40
   + x_27_42 + x_27_43 + x_27_44 + x_27_45 + x_27_47 = 0
 c_2_28: - 2 y_28 + x_4_28 + x_7_28 + x_9_28 + x_10_28 + x_11_28 + x_12_28
   + x_13_28 + x_14_28 + x_16_28 + x_18_28 + x_23_28 + x_24_28 + x_28_29
   + x_28_30 + x_28_31 + x_28_34 + x_28_39 + x_28_41 + x_28_42 + x_28_47
   + x_28_48 = 0
 c_2_29: - 2 y_29 + x_4_29 + x_6_29 + x_8_29 + x_9_29 + x_10_29 + x_13_29
   + x_14_29 + x_15_29 + x_17_29 + x_18_29 + x_19_29 + x_20_29 + x_21_29
   + x_22_29 + x_23_29 + x_25_29 + x_27_29 + x_28_29 + x_29_34 + x_29_38
   + x_29_41 + x_29_42 + x_29_44 + x_29_47 = 0
 c_2_30: - 2 y_30 + x_0_30 + x_2_30 + x_4_30 + x_5_30 + x_10_30 + x_11_30
   + x_12_30 + x_13_30 + x_14_30 + x_16_30 + x_17_30 + x_19_30 + x_20_30
   + x_21_30 + x_22_30 + x_24_30 + x_25_30 + x_28_30 + x_30_31 + x_30_33
   + x_30_34 + x_30_36 + x_30_37 + x_30_39 + x_30_41 + x_30_42 + x_30_43
   + x_30_45 + x_30_46 + x_30_47 + x_30_49 = 0
 c_2_31: - 2 y_31 + x_1_31 + x_2_31 + x_3_31 + x_4_31 + x_7_31 + x_8_31
   + x_11_31 + x_12_31 + x_15_31 + x_18_31 + x_19_31 + x_21_31 + x_24_31
   + x_25_31 + x_26_31 + x_27_31 + x_28_31 + x_30_31 + x_31_32 + x_31_34
   + x_31_35 + x_31_36 + x_31_39 + x_31_40 + x_31_42 + x_31_43 + x_31_44
   + x_31_47 = 0
 c_2_32: - 2 y_32 + x_1_32 + x_4_32 + x_6_32 + x_10_32 + x_11_32 + x_12_32
   + x_13_32 + x_17_32 + x_20_32 + x_23_32 + x_24_32 + x_25_32 + x_26_32
   + x_31_32 + x_32_36 + x_32_37 + x_32_39 + x_32_41 + x_32_42 + x_32_44
   + x_32_47 + x_32_48 + x_32_49 = 0
 c_2_33: - 2 y_33 + x_0_33 + x_1_33 + x_4_33 + x_6_33 + x_7_33 + x_10_33
   + x_11_33 + x_13_33 + x_14_33 + x_15_33 + x_16_33 + x_19_33 + x_26_33
   + x_27_33 + x_30_33 + x_33_34 + x_33_35 + x_33_36 + x_33_38 + x_33_42
   + x_33_44 + x_33_45 = 0
 c_2_34: - 2 y_34 + x_0_34 + x_1_34 + x_5_34 + x_8_34 + x_10_34 + x_13_34
   + x_14_34 + x_15_34 + x_16_34 + x_19_34 + x_21_34 + x_22_34 + x_23_34
   + x_24_34 + x_27_34 + x_28_34 + x_29_34 + x_30_34 + x_31_34 + x_33_34
   + x_34_35 + x_34_38 + x_34_39 + x_34_41 + x_34_42 + x_34_46 + x_34_47
   + x_34_48 + x_34_49 = 0
 c_2_35: - 2 y_35 + x_0_35 + x_2_35 + x_4_35 + x_5_35 + x_6_35 + x_8_35
   + x_9_35 + x_10_35 + x_11_35 + x_13_35 + x_16_35 + x_17_35 + x_18_35
   + x_20_35 + x_26_35 + x_27_35 + x_31_35 + x_33_35 + x_34_35 + x_35_37
   + x_35_38 + x_35_43 + x_35_46 + x_35_47 + x_35_49 = 0
 c_2_36: - 2 y_36 + x_0_36 + x_1_36 + x_2_36 + x_4_36 + x_5_36 + x_6_36
   + x_7_36 + x_9_36 + x_11_36 + x_12_36 + x_14_36 + x_24_36 + x_25_36
   + x_30_36 + x_31_36 + x_32_36 + x_33_36 + x_36_37 + x_36_40 + x_36_41
   + x_36_42 + x_36_45 + x_36_46 + x_36_48 + x_36_49 = 0
 c_2_37: - 2 y_37 + x_1_37 + x_3_37 + x_4_37 + x_5_37 + x_6_37 + x_8_37
   + x_10_37 + x_14_37 + x_15_37 + x_18_37 + x_19_37 + x_20_37 + x_21_37
   + x_22_37 + x_24_37 + x_26_37 + x_27_37 + x_30_37 + x_32_37 + x_35_37
   + x_36_37 + x_37_38 + x_37_41 + x_37_43 + x_37_45 + x_37_46 + x_37_48
   + x_37_49 = 0
 c_2_38: - 2 y_38 + x_4_38 + x_5_38 + x_8_38 + x_11_38 + x_13_38 + x_14_38
   + x_17_38 + x_18_38 + x_19_38 + x_20_38 + x_21_38 + x_22_38 + x_24_38
   + x_25_38 + x_29_38 + x_33_38 + x_34_38 + x_35_38 + x_37_38 + x_38_39
   + x_38_40 + x_38_42 + x_38_44 + x_38_47 = 0
 c_2_39: - 2 y_39 + x_3_39 + x_4_39 + x_5_39 + x_6_39 + x_7_39 + x_11_39
   + x_12_39 + x_15_39 + x_16_39 + x_18_39 + x_22_39 + x_23_39 + x_24_39
   + x_25_39 + x_26_39 + x_28_39 + x_30_39 + x_31_39 + x_32_39 + x_34_39
   + x_38_39 + x_39_40 + x_39_44 + x_39_48 + x_39_49 = 0
 c_2_40: - 2 y_40 + x_4_40 + x_5_40 + x_9_40 + x_13_40 + x_16_40 + x_17_40
   + x_22_40 + x_23_40 + x_24_40 + x_27_40 + x_31_40 + x_36_40 + x_38_40
   + x_39_40 + x_40_43 + x_40_44 + x_40_46 + x_40_47 + x_40_48 = 0
 c_2_41: - 2 y_41 + x_0_41 + x_4_41 + x_5_41 + x_6_41 + x_7_41 + x_8_41
   + x_12_41 + x_13_41 + x_16_41 + x_17_41 + x_18_41 + x_19_41 + x_20_41
   + x_21_41 + x_22_41 + x_28_41 + x_29_41 + x_30_41 + x_32_41 + x_34_41
   + x_36_41 + x_37_41 + x_41_44 + x_41_46 + x_41_47 + x_41_49 = 0
 c_2_42: - 2 y_42 + x_1_42 + x_3_42 + x_6_42 + x_8_42 + x_13_42 + x_14_42
   + x_15_42 + x_16_42 + x_17_42 + x_20_42 + x_24_42 + x_25_42 + x_27_42
   + x_28_42 + x_29_42 + x_30_42 + x_31_42 + x_32_42 + x_33_42 + x_34_42
   + x_36_42 + x_38_42 + x_42_44 + x_42_47 + x_42_48 = 0
 c_2_43: - 2 y_43 + x_1_43 + x_2_43 + x_3_43 + x_5_43 + x_7_43 + x_8_43
   + x_9_43 + x_10_43 + x_11_43 + x_13_43 + x_18_43 + x_19_43 + x_20_43
   + x_21_43 + x_22_43 + x_25_43 + x_27_43 + x_30_43 + x_31_43 + x_35_43
   + x_37_43 + x_40_43 + x_43_44 + x_43_47 = 0
 c_2_44: - 2 y_44 + x_0_44 + x_1_44 + x_5_44 + x_7_44 + x_8_44 + x_9_44
   + x_11_44 + x_13_44 + x_14_44 + x_19_44 + x_23_44 + x_24_44 + x_25_44
   + x_27_44 + x_29_44 + x_31_44 + x_32_44 + x_33_44 + x_38_44 + x_39_44
   + x_40_44 + x_41_44 + x_42_44 + x_43_44 + x_44_45 + x_44_46 + x_44_49
   = 0
 c_2_45: - 2 y_45 + x_0_45 + x_1_45 + x_8_45 + x_9_45 + x_11_45 + x_14_45
   + x_15_45 + x_19_45 + x_20_45 + x_21_45 + x_23_45 + x_24_45 + x_27_45
   + x_30_45 + x_33_45 + x_36_45 + x_37_45 + x_44_45 + x_45_46 + x_45_48
   = 0
 c_2_46: - 2 y_46 + x_0_46 + x_2_46 + x_4_46 + x_5_46 + x_6_46 + x_8_46
   + x_14_46 + x_15_46 + x_16_46 + x_19_46 + x_21_46 + x_22_46 + x_23_46
   + x_25_46 + x_30_46 + x_34_46 + x_35_46 + x_36_46 + x_37_46 + x_40_46
   + x_41_46 + x_44_46 + x_45_46 + x_46_47 + x_46_49 = 0
 c_2_47: - 2 y_47 + x_2_47 + x_3_47 + x_4_47 + x_6_47 + x_10_47 + x_14_47
   + x_15_47 + x_19_47 + x_20_47 + x_22_47 + x_24_47 + x_27_47 + x_28_47
   + x_29_47 + x_30_47 + x_31_47 + x_32_47 + x_34_47 + x_35_47 + x_38_47
   + x_40_47 + x_41_47 + x_42_47 + x_43_47 + x_46_47 = 0
 c_2_48: - 2 y_48 + x_1_48 + x_4_48 + x_5_48 + x_10_48 + x_15_48 + x_17_48
   + x_18_48 + x_20_48 + x_21_48 + x_25_48 + x_26_48 + x_28_48 + x_32_48
   + x_34_48 + x_36_48 + x_37_48 + x_39_48 + x_40_48 + x_42_48 + x_45_48
   = 0
 c_2_49: - 2 y_49 + x_1_49 + x_3_49 + x_5_49 + x_10_49 + x_12_49 + x_17_49
   + x_22_49 + x_23_49 + x_24_49 + x_30_49 + x_32_49 + x_34_49 + x_35_49
   + x_36_49 + x_37_49 + x_39_49 + x_41_49 + x_44_49 + x_46_49 = 0
Bounds
 Constant = 1
Binaries
 y_0 y_1 y_2 y_3 y_4 y_5 y_6 y_7 y_8 y_9 y_10 y_11 y_12 y_13 y_14 y_15 y_16
 y_17 y_18 y_19 y_20 y_21 y_22 y_23 y_24 y_25 y_26 y_27 y_28 y_29 y_30 y_31
 y_32 y_33 y_34 y_35 y_36 y_37 y_38 y_39 y_40 y_41 y_42 y_43 y_44 y_45 y_46
 y_47 y_48 y_49 x_0_1 x_0_2 x_0_4 x_0_5 x_0_6 x_0_7 x_0_8 x_0_9 x_0_10
 x_0_14 x_0_16 x_0_17 x_0_19 x_0_20 x_0_22 x_0_25 x_0_27 x_0_30 x_0_33
 x_0_34 x_0_35 x_0_36 x_0_41 x_0_44 x_0_45 x_0_46 x_1_2 x_1_3 x_1_5 x_1_6
 x_1_8 x_1_11 x_1_12 x_1_14 x_1_15 x_1_16 x_1_17 x_1_18 x_1_19 x_1_20
 x_1_22 x_1_31 x_1_32 x_1_33 x_1_34 x_1_36 x_1_37 x_1_42 x_1_43 x_1_44
 x_1_45 x_1_48 x_1_49 x_2_6 x_2_7 x_2_8 x_2_9 x_2_11 x_2_13 x_2_14 x_2_16
 x_2_17 x_2_18 x_2_19 x_2_20 x_2_25 x_2_26 x_2_30 x_2_31 x_2_35 x_2_36
 x_2_43 x_2_46 x_2_47 x_3_7 x_3_8 x_3_10 x_3_11 x_3_13 x_3_15 x_3_17 x_3_19
 x_3_21 x_3_22 x_3_23 x_3_26 x_3_27 x_3_31 x_3_37 x_3_39 x_3_42 x_3_43
 x_3_47 x_3_49 x_4_5 x_4_7 x_4_9 x_4_11 x_4_15 x_4_22 x_4_23 x_4_24 x_4_25
 x_4_28 x_4_29 x_4_30 x_4_31 x_4_32 x_4_33 x_4_35 x_4_36 x_4_37 x_4_38
 x_4_39 x_4_40 x_4_41 x_4_46 x_4_47 x_4_48 x_5_7 x_5_8 x_5_11 x_5_17 x_5_18
 x_5_22 x_5_24 x_5_25 x_5_27 x_5_30 x_5_34 x_5_35 x_5_36 x_5_37 x_5_38
 x_5_39 x_5_40 x_5_41 x_5_43 x_5_44 x_5_46 x_5_48 x_5_49 x_6_10 x_6_11
 x_6_13 x_6_14 x_6_18 x_6_20 x_6_21 x_6_22 x_6_24 x_6_25 x_6_26 x_6_29
 x_6_32 x_6_33 x_6_35 x_6_36 x_6_37 x_6_39 x_6_41 x_6_42 x_6_46 x_6_47
 x_7_8 x_7_9 x_7_12 x_7_14 x_7_15 x_7_21 x_7_22 x_7_23 x_7_26 x_7_27 x_7_28
 x_7_31 x_7_33 x_7_36 x_7_39 x_7_41 x_7_43 x_7_44 x_8_9 x_8_11 x_8_13
 x_8_14 x_8_22 x_8_23 x_8_24 x_8_25 x_8_27 x_8_29 x_8_31 x_8_34 x_8_35
 x_8_37 x_8_38 x_8_41 x_8_42 x_8_43 x_8_44 x_8_45 x_8_46 x_9_10 x_9_12
 x_9_13 x_9_15 x_9_17 x_9_18 x_9_21 x_9_22 x_9_24 x_9_25 x_9_28 x_9_29
 x_9_35 x_9_36 x_9_40 x_9_43 x_9_44 x_9_45 x_10_11 x_10_13 x_10_14 x_10_15
 x_10_16 x_10_17 x_10_21 x_10_25 x_10_26 x_10_27 x_10_28 x_10_29 x_10_30
 x_10_32 x_10_33 x_10_34 x_10_35 x_10_37 x_10_43 x_10_47 x_10_48 x_10_49
 x_11_12 x_11_15 x_11_19 x_11_25 x_11_28 x_11_30 x_11_31 x_11_32 x_11_33
 x_11_35 x_11_36 x_11_38 x_11_39 x_11_43 x_11_44 x_11_45 x_12_13 x_12_14
 x_12_15 x_12_16 x_12_19 x_12_20 x_12_22 x_12_23 x_12_24 x_12_25 x_12_28
 x_12_30 x_12_31 x_12_32 x_12_36 x_12_39 x_12_41 x_12_49 x_13_14 x_13_15
 x_13_16 x_13_20 x_13_22 x_13_23 x_13_24 x_13_26 x_13_28 x_13_29 x_13_30
 x_13_32 x_13_33 x_13_34 x_13_35 x_13_38 x_13_40 x_13_41 x_13_42 x_13_43
 x_13_44 x_14_17 x_14_18 x_14_21 x_14_22 x_14_23 x_14_24 x_14_25 x_14_27
 x_14_28 x_14_29 x_14_30 x_14_33 x_14_34 x_14_36 x_14_37 x_14_38 x_14_42
 x_14_44 x_14_45 x_14_46 x_14_47 x_15_18 x_15_23 x_15_24 x_15_29 x_15_31
 x_15_33 x_15_34 x_15_37 x_15_39 x_15_42 x_15_45 x_15_46 x_15_47 x_15_48
 x_16_17 x_16_21 x_16_25 x_16_26 x_16_28 x_16_30 x_16_33 x_16_34 x_16_35
 x_16_39 x_16_40 x_16_41 x_16_42 x_16_46 x_17_20 x_17_22 x_17_23 x_17_24
 x_17_25 x_17_29 x_17_30 x_17_32 x_17_35 x_17_38 x_17_40 x_17_41 x_17_42
 x_17_48 x_17_49 x_18_19 x_18_20 x_18_23 x_18_26 x_18_27 x_18_28 x_18_29
 x_18_31 x_18_35 x_18_37 x_18_38 x_18_39 x_18_41 x_18_43 x_18_48 x_19_21
 x_19_23 x_19_24 x_19_27 x_19_29 x_19_30 x_19_31 x_19_33 x_19_34 x_19_37
 x_19_38 x_19_41 x_19_43 x_19_44 x_19_45 x_19_46 x_19_47 x_20_21 x_20_23
 x_20_26 x_20_29 x_20_30 x_20_32 x_20_35 x_20_37 x_20_38 x_20_41 x_20_42
 x_20_43 x_20_45 x_20_47 x_20_48 x_21_23 x_21_24 x_21_25 x_21_26 x_21_27
 x_21_29 x_21_30 x_21_31 x_21_34 x_21_37 x_21_38 x_21_41 x_21_43 x_21_45
 x_21_46 x_21_48 x_22_23 x_22_27 x_22_29 x_22_30 x_22_34 x_22_37 x_22_38
 x_22_39 x_22_40 x_22_41 x_22_43 x_22_46 x_22_47 x_22_49 x_23_26 x_23_27
 x_23_28 x_23_29 x_23_32 x_23_34 x_23_39 x_23_40 x_23_44 x_23_45 x_23_46
 x_23_49 x_24_27 x_24_28 x_24_30 x_24_31 x_24_32 x_24_34 x_24_36 x_24_37
 x_24_38 x_24_39 x_24_40 x_24_42 x_24_44 x_24_45 x_24_47 x_24_49 x_25_26
 x_25_29 x_25_30 x_25_31 x_25_32 x_25_36 x_25_38 x_25_39 x_25_42 x_25_43
 x_25_44 x_25_46 x_25_48 x_26_31 x_26_32 x_26_33 x_26_35 x_26_37 x_26_39
 x_26_48 x_27_29 x_27_31 x_27_33 x_27_34 x_27_35 x_27_37 x_27_40 x_27_42
 x_27_43 x_27_44 x_27_45 x_27_47 x_28_29 x_28_30 x_28_31 x_28_34 x_28_39
 x_28_41 x_28_42 x_28_47 x_28_48 x_29_34 x_29_38 x_29_41 x_29_42 x_29_44
 x_29_47 x_30_31 x_30_33 x_30_34 x_30_36 x_30_37 x_30_39 x_30_41 x_30_42
 x_30_43 x_30_45 x_30_46 x_30_47 x_30_49 x_31_32 x_31_34 x_31_35 x_31_36
 x_31_39 x_31_40 x_31_42 x_31_43 x_31_44 x_31_47 x_32_36 x_32_37 x_32_39
 x_32_41 x_32_42 x_32_44 x_32_47 x_32_48 x_32_49 x_33_34 x_33_35 x_33_36
 x_33_38 x_33_42 x_33_44 x_33_45 x_34_35 x_34_38 x_34_39 x_34_41 x_34_42
 x_34_46 x_34_47 x_34_48 x_34_49 x_35_37 x_35_38 x_35_43 x_35_46 x_35_47
 x_35_49 x_36_37 x_36_40 x_36_41 x_36_42 x_36_45 x_36_46 x_36_48 x_36_49
 x_37_38 x_37_41 x_37_43 x_37_45 x_37_46 x_37_48 x_37_49 x_38_39 x_38_40
 x_38_42 x_38_44 x_38_47 x_39_40 x_39_44 x_39_48 x_39_49 x_40_43 x_40_44
 x_40_46 x_40_47 x_40_48 x_41_44 x_41_46 x_41_47 x_41_49 x_42_44 x_42_47
 x_42_48 x_43_44 x_43_47 x_44_45 x_44_46 x_44_49 x_45_46 x_45_48 x_46_47
 x_46_49
End
